# AMPL MODEL: ./res/solid-ubday-overflow.ampl

# Timestamp: 09 February 2025, 19:06:56 PM

param MAXWORK := 32;

param:
TNAME: TWORK :=
'archaeology' 1600
'biology' 1600
'botany' 1600
'history' 1600
'math' 1600
'zoology' 1600
;

set TSCOPE['archaeology'] :=
1 2 3 4 5 8 9 11 12 15 16 17 18 19 22 23 24 25 26 29 30 31 32 33 36 37 38 39 40 43 44 45 46 47 50 51 52 53 54 57 58 59 60 61 64 65 66 67 68 71
72 73 74 75
;

set TSCOPE['biology'] :=
1 2 3 4 5 8 9 11 12 15 16 17 18 19 22 23 24 25 26 29 30 31 32 33 36 37 38 39 40 43 44 45 46 47 50 51 52 53 54 57 58 59 60 61 64 65 66 67 68 71
72 73 74 75 78 79 80 81 82 85 86 87 88 89 92 93 94 95 96 99 100 101 102 103 106 107 108 109 110 113 114 115 116 117 120 121 122 123 124 127 128 129 130 131 134 135 136 137 138
;

set TSCOPE['botany'] :=
1 2 3 4 5 8 9 11 12 15 16 17 18 19 22 23 24 25 26 29 30 31 32 33 36 37 38 39 40 43 44 45 46 47 50 51 52 53 54 57 58 59 60 61 64 65 66 67 68 71
72 73 74 75
;

set TSCOPE['history'] :=
1 2 3 4 5 8 9 11 12 15 16 17 18 19 22 23 24 25 26 29 30 31 32 33 36 37 38 39 40 43 44 45 46 47 50 51 52 53 54 57 58 59 60 61 64 65 66 67 68 71
72 73 74 75 78 79 80 81 82 85 86 87 88 89 92 93 94 95 96 99 100 101 102 103 106 107 108
;

set TSCOPE['math'] :=
1 2 3 4 5 8 9 11 12 15 16 17 18 19 22 23 24 25 26 29 30 31 32 33 36 37 38 39 40 43 44 45 46 47 50 51 52 53 54 57 58 59 60 61 64 65 66 67 68 71
72 73 74 75 78 79 80 81 82 85 86 87 88 89 92 93 94 95 96 99 100 101 102 103 106 107 108
;

set TSCOPE['zoology'] :=
1 2 3 4 5 8 9 11 12 15 16 17 18 19 22 23 24 25 26 29 30 31 32 33 36 37 38 39 40 43 44 45 46 47 50 51 52 53 54 57 58 59 60 61 64 65 66 67 68 71
72 73 74 75 78 79 80 81 82 85 86 87 88 89 92 93 94 95 96 99 100 101 102 103 106 107 108
;

set ENAME :=
'Izydor'
'Jeremiusz'
'Maurycy'
;

set ASSIGN :=
('Izydor',*)
'math'
('Jeremiusz',*)
'archaeology'
'history'
('Maurycy',*)
'biology'
'botany'
'zoology'
;

param:
XBID: XBEXPERT XBTASK XBS XBE XBL XBU :=

;

param:
UBID: UBEXPERT UBS UBE UBL UBU :=
1 'Jeremiusz' 1 77 2 2
2 'Maurycy' 1 77 3 3
;

param:
EBID: EBEXPERT EBS EBE EBL EBU :=

;

param:
PNAME: PERS PERE :=
'25.Jan' 1 31
'25.Feb' 32 60
'25.Mar' 61 91
'25.Apr' 92 120
'25.May' 121 154
;

param:
EXPPER: PBL PBU :=

;
